Optimal - objective value 130.00000000
     17 z_0_2_1_6                1         -3.33333333333333
     65 z_0_3_1_2                1                       2
     82 z_0_3_2_8                1                      -4
    152 z_0_4_4_9                1                       0
    158 z_0_5_0_4                1         -3.33333333333333
    169 z_0_5_1_4                1         3.33333333333333
    180 z_0_5_3_4                1         -3.33333333333333
    212 z_1_0_1_3                1                       0
    246 z_1_0_4_6                1                       0
    259 z_1_3_1_0                1                      -2
    276 z_1_3_2_6                1                       2
    310 z_1_4_1_2                1                       0
    344 z_1_4_4_5                1                       0
    351 z_1_5_0_1                1                       0
    378 z_1_5_3_6                1                       0
    446 z_2_0_4_10               1                       0
    447 z_2_2_0_0                1                       0
    463 z_2_2_1_5                1                       0
    511 z_2_3_1_1                1                      -2
    526 z_2_3_2_5                1                      -2
    562 z_2_4_1_3                1         13.3333333333333
    592 z_2_4_4_2                1         3.33333333333333
    604 z_2_5_0_3                1                       0
    626 z_2_5_3_3                1                       0
    648 z_3_1_0_3                1                      10
    679 z_3_1_3_8                1                       0
    692 z_3_2_0_2                1                      10
    703 z_3_2_1_2                1                       0
    762 z_3_3_1_9                1                       0
    768 z_3_3_2_4                1                       0
    807 z_3_4_1_5                1                       0
    844 z_3_5_0_0                1                       0
    871 z_3_5_3_5                1                       0
    901 z_4_0_1_2                1                       0
    938 z_4_0_4_8                1                       0
    945 z_4_1_0_4                1                       0
    973 z_4_1_3_6                1                       0
    987 z_4_2_0_1                1                       0
   1006 z_4_2_1_9                1                       0
   1086 z_4_4_4_6                1                       0
   1093 z_4_5_0_2                1                       0
   1107 z_4_5_1_5                1                       0
   1115 z_4_5_3_2                1                       0
   1136 w_0_1                    1                      10
   1139 w_0_4                    1                       0
   1140 w_1_0                    1                       0
   1143 w_1_3                    1                      10
   1145 w_2_0                    1                       0
   1146 w_2_1                    1                      10
   1151 w_3_1                    1                       6
   1152 w_3_2                    1                       8
   1156 w_4_1                    1                       0
   1159 w_4_4                    1                      10
   1160 w_5_0                    1                      10
   1161 w_5_1                    1                      10
   1163 w_5_3                    1                      10
   1173 o_0_1_2     1.000000000001                   -1.25
   1174 o_0_1_3                  1                       0
   1189 o_0_4_0    0.99999999999975                       0
   1190 o_0_4_1                  1                       0
   1191 o_0_4_2    0.99999999999975                       0
   1192 o_0_4_3    0.99999999999975                       0
   1193 o_0_4_4    0.99999999999975                       0
   1194 o_0_4_5    0.99999999999975                       0
   1198 o_1_0_3     0.999999999996                       0
   1199 o_1_0_4                  1                       0
   1213 o_1_3_0     1.000000000002                       0
   1214 o_1_3_1                  1                       0
   1215 o_1_3_2    1.0000000000015                       0
   1216 o_1_3_3    1.0000000000015                       0
   1225 o_2_0_0     1.000000000002                       0
   1226 o_2_0_1     1.000000000001                       0
   1227 o_2_0_2     1.000000000002                       0
   1231 o_2_1_0                  1                       0
   1232 o_2_1_1                  1                       0
   1233 o_2_1_2                  1                       0
   1234 o_2_1_3                  1                       0
   1235 o_2_1_4                  1                       0
   1236 o_2_1_5                  1                       0
   1261 o_3_1_0                  1                       0
   1262 o_3_1_1                  1                       0
   1263 o_3_1_2                  1                       0
   1264 o_3_1_3                  1                       0
   1265 o_3_1_4                  1                       0
   1267 o_3_2_0                  1                       0
   1268 o_3_2_1                  1                       0
   1269 o_3_2_2                  1                       0
   1270 o_3_2_3     0.999999999999                       0
   1271 o_3_2_4     0.999999999999                       0
   1272 o_3_2_5                  1                       0
   1291 o_4_1_0                  1                       0
   1292 o_4_1_1     0.999999999999                       0
   1293 o_4_1_2     0.999999999999                       0
   1294 o_4_1_3                  1                       0
   1309 o_4_4_0                  1                       0
   1310 o_4_4_1                  1                       0
   1311 o_4_4_2     1.000000000002                       0
   1312 o_4_4_3     1.000000000002                       0
   1313 o_4_4_4     0.999999999999                       0
   1314 o_4_4_5                  1                       0
   1315 o_5_0_0                  1                       0
   1316 o_5_0_1     1.000000000001                       0
   1317 o_5_0_2                  1                       0
   1318 o_5_0_3     1.000000000003                       0
   1319 o_5_0_4                  1                       0
   1325 o_5_1_4     1.000000000001                       0
   1326 o_5_1_5                  1                       0
   1333 o_5_3_0                  1                       0
   1334 o_5_3_1     1.000000000001                       0
   1335 o_5_3_2     1.000000000001                       0
   1336 o_5_3_3     1.000000000002                       0
   1337 o_5_3_4     0.999999999999                       0
   1338 o_5_3_5                  1                       0
   1349 e_0_0_4                  1                       0
   1351 e_0_1_0                  1                       0
   1352 e_0_1_1                  1                       0
   1353 e_0_1_2                  1                       0
   1355 e_0_1_4                  1                       0
   1359 e_0_2_2                  1                       0
   1360 e_0_2_3                  1                       0
   1367 e_0_3_4                  1                       0
   1372 e_0_4_3                  1                       0
   1373 e_0_4_4                  1                       0
   1376 e_1_0_1                  1                       0
   1381 e_1_1_0                  1                       0
   1383 e_1_1_2     1.000000000001                       0
   1384 e_1_1_3                  1                       0
   1387 e_1_2_0                  1                       0
   1388 e_1_2_1                  1                       0
   1393 e_1_3_0                  1                       0
   1394 e_1_3_1                  1                       0
   1399 e_1_4_0                  1                       0
   1400 e_1_4_1                  1                       0
   1404 e_1_4_5                  1                       0
   1405 e_2_0_0                  1                       0
   1408 e_2_0_3                  1                       0
   1412 e_2_1_1                  1                       0
   1414 e_2_1_3                  1                       0
   1416 e_2_1_5                  1                       0
   1422 e_2_2_5    1.00000000000013                       0
   1426 e_2_3_3                  1                       0
   1431 e_2_4_2                  1                       0
   1433 e_2_4_4                  1                       0
   1434 e_2_4_5    0.99999999999975                       0
   1435 e_3_0_0                  1                       0
   1437 e_3_0_2                  1                       0
   1438 e_3_0_3                  1                       0
   1441 e_3_1_0                  1                       0
   1442 e_3_1_1                  1                       0
   1443 e_3_1_2                  1                       0
   1444 e_3_1_3                  1                       0
   1445 e_3_1_4                  1                       0
   1451 e_3_2_4                  1                       0
   1455 e_3_3_2     1.000000000001                       0
   1456 e_3_3_3                  1                       0
   1458 e_3_3_5                  1                       0
   1466 e_4_0_1                  1                       0
   1467 e_4_0_2                  1                       0
   1469 e_4_0_4                  1                       0
   1473 e_4_1_2                  1                       0
   1474 e_4_1_3                  1                       0
   1475 e_4_1_4                  1                       0
   1476 e_4_1_5                  1                       0
   1483 e_4_3_0                  1                       0
   1484 e_4_3_1                  1                       0
   1485 e_4_3_2    1.0000000000015                       0
   1489 e_4_4_0    0.99999999999975                       0
   1490 e_4_4_1                  1                       0
   1491 e_4_4_2    1.00000000000025                       0
   1492 e_4_4_3     1.000000000001                       0
   1508 af_0_1_0                 1                       0
   1510 af_0_1_1    1.000000000001                       0
   1512 af_0_1_2    1.000000000001                       0
   1513 bf_0_1_3    0.999999999999                       0
   1515 bf_0_1_4    0.999999999998                       0
   1517 bf_0_1_5                 1                       0
   1544 af_0_4_0   0.99999999999975                       0
   1545 bf_0_4_1                 1                       0
   1546 af_0_4_1   0.99999999999975                       0
   1547 bf_0_4_2    0.999999999999                       0
   1548 af_0_4_2   0.99999999999975                       0
   1549 bf_0_4_3                 1                       0
   1550 af_0_4_3   0.99999999999975                       0
   1551 bf_0_4_4    1.000000000001                       0
   1552 af_0_4_4   0.99999999999975                       0
   1553 bf_0_4_5                 1                       0
   1556 af_1_0_0                 1                       0
   1558 af_1_0_1    0.999999999999                       0
   1560 af_1_0_2                 1                       0
   1562 af_1_0_3                 1                       0
   1563 bf_1_0_4                 1                       0
   1565 bf_1_0_5                 1                       0
   1592 af_1_3_0    1.000000000001                       0
   1593 bf_1_3_1                 1                       0
   1594 af_1_3_1   1.0000000000015                       0
   1595 bf_1_3_2    1.000000000001                       0
   1596 af_1_3_2                 1                       0
   1597 bf_1_3_3                 1                       0
   1599 bf_1_3_4   1.0000000000015                       0
   1601 bf_1_3_5   1.0000000000015                       0
   1616 af_2_0_0                 1                       0
   1617 bf_2_0_1                 1                       0
   1618 af_2_0_1                 1                       0
   1619 bf_2_0_2    1.000000000001                       0
   1621 bf_2_0_3                 1                       0
   1623 bf_2_0_4    1.000000000001                       0
   1625 bf_2_0_5                 1                       0
   1628 af_2_1_0                 1                       0
   1629 bf_2_1_1    1.000000000001                       0
   1630 af_2_1_1                 1                       0
   1631 bf_2_1_2                 1                       0
   1632 af_2_1_2                 1                       0
   1633 bf_2_1_3                 1                       0
   1634 af_2_1_3                 1                       0
   1635 bf_2_1_4                 1                       0
   1636 af_2_1_4                 1                       0
   1637 bf_2_1_5                 1                       0
   1688 af_3_1_0                 1                       0
   1689 bf_3_1_1                 1                       0
   1690 af_3_1_1                 1                       0
   1691 bf_3_1_2                 1                       0
   1692 af_3_1_2                 1                       0
   1693 bf_3_1_3    0.999999999999                       0
   1694 af_3_1_3    1.000000000001                       0
   1695 bf_3_1_4                 1                       0
   1697 bf_3_1_5                 1                       0
   1700 af_3_2_0    0.999999999999                       0
   1701 bf_3_2_1    1.000000000001                       0
   1702 af_3_2_1    0.999999999999                       0
   1703 bf_3_2_2                 1                       0
   1704 af_3_2_2                 1                       0
   1705 bf_3_2_3                 1                       0
   1706 af_3_2_3                 1                       0
   1707 bf_3_2_4                 1                       0
   1708 af_3_2_4    1.000000000001                       0
   1709 bf_3_2_5    0.999999999999                       0
   1748 af_4_1_0                 1                       0
   1749 bf_4_1_1                 1                       0
   1750 af_4_1_1                 1                       0
   1751 bf_4_1_2    0.999999999999                       0
   1752 af_4_1_2                 1                       0
   1753 bf_4_1_3                 1                       0
   1755 bf_4_1_4                 1                       0
   1757 bf_4_1_5                 1                       0
   1784 af_4_4_0                 1                       0
   1785 bf_4_4_1                 1                       0
   1786 af_4_4_1                 1                       0
   1787 bf_4_4_2    0.999999999999                       0
   1788 af_4_4_2                 1                       0
   1789 bf_4_4_3    1.000000000002                       0
   1790 af_4_4_3    0.999999999999                       0
   1791 bf_4_4_4    1.000000000001                       0
   1792 af_4_4_4                 1                       0
   1793 bf_4_4_5    0.999999999999                       0
   1796 af_5_0_0    0.999999999999                       0
   1797 bf_5_0_1    1.000000000002                       0
   1798 af_5_0_1    0.999999999999                       0
   1799 bf_5_0_2    1.000000000001                       0
   1800 af_5_0_2    1.000000000001                       0
   1801 bf_5_0_3                 1                       0
   1802 af_5_0_3                 1                       0
   1803 bf_5_0_4    1.000000000002                       0
   1805 bf_5_0_5                 1                       0
   1808 af_5_1_0                 1                       0
   1810 af_5_1_1    1.000000000001                       0
   1812 af_5_1_2    0.999999999999                       0
   1814 af_5_1_3                 1                       0
   1816 af_5_1_4    1.000000000001                       0
   1817 bf_5_1_5                 1                       0
   1832 af_5_3_0    0.999999999999                       0
   1833 bf_5_3_1    1.000000000002                       0
   1834 af_5_3_1                 1                       0
   1835 bf_5_3_2    1.000000000001                       0
   1836 af_5_3_2                 1                       0
   1837 bf_5_3_3                 1                       0
   1838 af_5_3_3                 1                       0
   1839 bf_5_3_4    1.000000000001                       0
   1840 af_5_3_4    1.000000000001                       0
   1841 bf_5_3_5    0.999999999999                       0
